unsat
(:eliminated-applications 2
 :eliminated-vars         1
 :max-memory              18.10
 :memory                  17.95
 :nlsat-conflicts         3
 :nlsat-learned-added     2
 :nlsat-propagations      7
 :nlsat-stages            3
 :num-allocs              5698
 :rlimit-count            2307
 :time                    0.00
 :total-time              0.01)
